Geographic Exponential Decay
40 177 200 77 144 226 238 277 145 293 247 24 98 30 289 256 194 252 118 153 138 288 300 75 176 280 224 263 267 66 265 285 278 243 7 250 214 19 79 44 104
p edge 320 331
e 0 228 5.0
e 1 79 13.0
e 1 0 8.0
e 2 79 9.0
e 3 290 2.0
e 3 1 1.0
e 4 55 8.0
e 4 3 4.0
e 5 199 20.0
e 5 16 19.0
e 5 4 2.0
e 6 33 5.0
e 6 5 1.0
e 7 76 31.0
e 7 51 56.0
e 7 263 51.0
e 7 170 86.0
e 7 87 14.0
e 7 6 12.0
e 8 9 1.0
e 8 7 32.0
e 10 234 10.0
e 10 8 11.0
e 11 244 32.0
e 12 132 12.0
e 12 10 1.0
e 13 264 1.0
e 13 12 10.0
e 14 294 1.0
e 14 13 11.0
e 15 189 1.0
e 15 14 2.0
e 17 163 8.0
e 17 69 5.0
e 17 15 2.0
e 18 19 32.0
e 19 229 10.0
e 19 51 60.0
e 19 198 28.0
e 19 136 98.0
e 20 141 2.0
e 20 119 14.0
e 20 17 22.0
e 21 183 3.0
e 21 20 6.0
e 22 204 9.0
e 22 21 1.0
e 23 24 11.0
e 24 56 26.0
e 24 249 48.0
e 24 259 57.0
e 24 237 21.0
e 25 98 100.0
e 25 22 11.0
e 26 99 1.0
e 26 25 6.0
e 27 115 1.0
e 27 26 1.0
e 28 270 5.0
e 28 27 1.0
e 29 30 21.0
e 29 28 1.0
e 30 62 25.0
e 30 167 10.0
e 30 245 69.0
e 30 111 35.0
e 31 275 18.0
e 31 288 10.0
e 32 103 9.0
e 32 29 1.0
e 34 181 1.0
e 34 32 3.0
e 35 36 3.0
e 35 34 1.0
e 37 38 12.0
e 37 35 2.0
e 38 39 15.0
e 40 82 6.0
e 40 37 5.0
e 41 161 12.0
e 42 104 98.0
e 43 44 14.0
e 44 279 77.0
e 44 177 36.0
e 44 300 32.0
e 44 206 84.0
e 45 164 2.0
e 45 40 5.0
e 46 88 22.0
e 46 137 24.0
e 46 45 20.0
e 47 194 83.0
e 48 49 9.0
e 48 148 13.0
e 48 46 18.0
e 50 121 2.0
e 50 48 8.0
e 52 287 6.0
e 52 50 2.0
e 53 280 78.0
e 54 56 15.0
e 56 210 27.0
e 57 273 1.0
e 57 52 3.0
e 58 143 1.0
e 58 57 1.0
e 59 261 4.0
e 59 58 1.0
e 60 153 29.0
e 60 297 17.0
e 61 267 98.0
e 63 298 5.0
e 63 59 3.0
e 64 299 1.0
e 64 63 5.0
e 65 151 2.0
e 65 64 1.0
e 66 225 41.0
e 66 67 93.0
e 66 175 76.0
e 66 253 84.0
e 66 282 96.0
e 66 65 60.0
e 68 281 9.0
e 68 66 83.0
e 70 140 7.0
e 70 98 71.0
e 70 312 3.0
e 71 311 1.0
e 71 68 6.0
e 72 73 1.0
e 72 71 1.0
e 74 232 3.0
e 74 72 4.0
e 75 106 53.0
e 75 247 73.0
e 75 254 84.0
e 75 77 64.0
e 75 283 53.0
e 77 301 41.0
e 77 78 57.0
e 77 226 68.0
e 77 145 61.0
e 79 255 39.0
e 79 102 89.0
e 79 80 26.0
e 81 271 4.0
e 81 74 5.0
e 83 97 23.0
e 83 84 12.0
e 85 211 3.0
e 85 81 1.0
e 86 186 3.0
e 86 85 2.0
e 88 131 22.0
e 89 90 1.0
e 89 86 1.0
e 91 249 42.0
e 91 288 99.0
e 92 104 42.0
e 93 176 20.0
e 94 160 1.0
e 94 89 1.0
e 95 165 4.0
e 95 94 1.0
e 96 250 78.0
e 97 144 26.0
e 98 187 8.0
e 98 274 80.0
e 98 317 43.0
e 100 159 1.0
e 100 95 4.0
e 101 180 1.0
e 101 100 2.0
e 104 105 100.0
e 104 217 62.0
e 104 144 18.0
e 107 277 94.0
e 108 257 9.0
e 109 276 1.0
e 109 101 2.0
e 110 267 4.0
e 112 113 15.0
e 113 194 65.0
e 114 142 4.0
e 114 109 4.0
e 116 182 1.0
e 116 114 12.0
e 117 118 42.0
e 117 171 9.0
e 117 116 17.0
e 118 120 26.0
e 118 172 54.0
e 118 122 89.0
e 118 192 77.0
e 123 209 2.0
e 123 117 7.0
e 124 125 1.0
e 124 123 2.0
e 126 212 14.0
e 126 124 3.0
e 127 250 6.0
e 128 129 14.0
e 128 147 7.0
e 128 126 12.0
e 130 184 16.0
e 130 133 34.0
e 130 288 53.0
e 134 212 6.0
e 135 137 10.0
e 138 139 43.0
e 138 144 36.0
e 138 145 29.0
e 138 291 58.0
e 138 152 100.0
e 144 272 32.0
e 144 241 79.0
e 145 262 27.0
e 145 161 55.0
e 145 295 20.0
e 146 309 2.0
e 146 128 15.0
e 149 310 47.0
e 149 150 2.0
e 149 153 67.0
e 153 154 35.0
e 153 155 94.0
e 153 288 7.0
e 156 296 1.0
e 156 146 1.0
e 157 158 46.0
e 157 162 39.0
e 157 219 44.0
e 157 156 31.0
e 166 168 5.0
e 166 157 31.0
e 169 173 1.0
e 169 166 1.0
e 174 176 56.0
e 176 177 4.0
e 176 196 33.0
e 176 178 3.0
e 177 179 52.0
e 177 194 48.0
e 177 184 97.0
e 179 185 44.0
e 179 227 30.0
e 188 190 3.0
e 188 244 42.0
e 191 193 6.0
e 191 169 1.0
e 194 195 16.0
e 194 196 15.0
e 197 266 1.0
e 197 191 1.0
e 198 256 10.0
e 200 201 57.0
e 200 202 41.0
e 200 203 92.0
e 200 269 13.0
e 200 205 50.0
e 205 231 1.0
e 207 208 12.0
e 207 197 7.0
e 213 214 98.0
e 214 215 3.0
e 214 216 18.0
e 214 218 51.0
e 214 226 86.0
e 220 221 31.0
e 221 222 43.0
e 221 223 47.0
e 223 224 87.0
e 224 226 5.0
e 224 230 57.0
e 224 265 30.0
e 224 231 83.0
e 226 233 14.0
e 226 235 87.0
e 236 267 19.0
e 238 239 59.0
e 238 240 67.0
e 238 242 81.0
e 238 243 37.0
e 238 244 75.0
e 243 246 45.0
e 243 247 14.0
e 243 248 6.0
e 243 249 21.0
e 247 302 52.0
e 247 313 75.0
e 247 250 46.0
e 250 251 39.0
e 250 252 45.0
e 252 256 85.0
e 252 257 30.0
e 252 258 71.0
e 252 284 2.0
e 256 257 74.0
e 256 260 11.0
e 256 263 98.0
e 263 265 80.0
e 263 267 82.0
e 263 268 65.0
e 265 277 74.0
e 265 267 81.0
e 265 278 7.0
e 277 278 97.0
e 277 314 26.0
e 277 280 56.0
e 278 280 27.0
e 278 285 79.0
e 278 286 11.0
e 280 285 29.0
e 280 288 80.0
e 285 289 3.0
e 285 292 90.0
e 285 293 2.0
e 289 293 4.0
e 289 300 58.0
e 289 303 31.0
e 289 304 27.0
e 293 300 5.0
e 293 305 27.0
e 293 306 2.0
e 300 307 21.0
e 300 308 53.0
e 308 315 1.0
e 316 318 2.0
e 316 319 13.0
e 316 207 4.0
